33
69
18
73
179
75
648
196
920
67
943
260
195
1397
1735
3039
4449
6546
4659
7700
7069
8885
9350
8327
643
1512
10481
15981
16545
8930
18413
18707
21315
16394
21899
20757
13825
19274
9639
26192
25716
16770
19520
32272
23192
3295
23078
22474
42426
22024
6359
870
47728
49629
48042
52215
55394
57711
9776
49101
20793
60784
21785
66670
60595
52367
74074
53298
1660
58484
83440
80411
70189
65595
34492
35452
74523
21061
77412
89688
69540
21107
102787
88308
72333
62565
25833
102534
107183
53154
67423
115488
17562
137556
137690
122147
10819
144499
42108
4815
